DIMACS_lns/graph-1000-697.col
p edge 1000 1842
e 2 967
e 2 672
e 2 896
e 2 270
e 2 973
e 2 589
e 3 486
e 3 526
e 3 525
e 3 271
e 3 290
e 3 569
e 4 202
e 4 412
e 4 983
e 4 163
e 5 641
e 5 571
e 5 519
e 5 727
e 5 629
e 5 926
e 5 151
e 5 149
e 5 276
e 6 750
e 6 755
e 6 345
e 6 46
e 6 545
e 7 812
e 7 932
e 7 110
e 7 679
e 7 589
e 8 348
e 8 328
e 8 209
e 8 703
e 8 11
e 9 898
e 9 700
e 9 53
e 9 447
e 9 220
e 11 608
e 11 633
e 11 784
e 11 621
e 11 265
e 11 424
e 13 969
e 13 58
e 13 190
e 13 517
e 13 307
e 14 968
e 14 580
e 14 707
e 14 103
e 15 945
e 15 882
e 15 601
e 15 526
e 15 24
e 15 737
e 16 392
e 16 391
e 16 621
e 16 185
e 16 141
e 17 297
e 17 452
e 17 589
e 17 33
e 17 22
e 17 170
e 18 424
e 18 727
e 18 806
e 18 50
e 18 297
e 20 564
e 20 830
e 20 323
e 20 511
e 20 923
e 20 389
e 20 507
e 20 650
e 20 127
e 20 878
e 21 270
e 21 264
e 21 283
e 22 328
e 22 776
e 22 235
e 22 346
e 23 364
e 23 71
e 23 291
e 23 219
e 23 905
e 23 934
e 24 872
e 24 55
e 24 101
e 25 699
e 25 287
e 25 463
e 26 465
e 26 772
e 26 396
e 26 234
e 27 344
e 27 313
e 27 949
e 27 969
e 28 240
e 28 310
e 28 218
e 29 325
e 29 269
e 29 440
e 29 434
e 30 452
e 30 776
e 30 952
e 30 56
e 30 334
e 31 502
e 31 718
e 31 291
e 31 949
e 32 532
e 32 741
e 32 114
e 33 266
e 33 418
e 33 843
e 34 509
e 34 679
e 34 819
e 35 681
e 35 992
e 35 130
e 35 743
e 36 323
e 36 732
e 36 892
e 36 455
e 37 50
e 37 193
e 37 376
e 38 717
e 38 873
e 38 965
e 38 108
e 39 551
e 39 949
e 39 186
e 40 158
e 40 58
e 40 194
e 40 363
e 40 238
e 41 993
e 41 53
e 41 63
e 41 55
e 43 479
e 43 356
e 43 363
e 43 104
e 43 941
e 43 885
e 45 901
e 45 391
e 45 250
e 45 829
e 46 438
e 46 226
e 46 823
e 46 154
e 46 581
e 46 693
e 46 453
e 46 306
e 49 893
e 49 329
e 49 128
e 49 809
e 50 742
e 50 467
e 51 720
e 51 597
e 51 988
e 52 737
e 52 118
e 52 900
e 52 724
e 52 404
e 53 456
e 53 883
e 53 966
e 53 275
e 53 186
e 54 394
e 54 833
e 54 328
e 54 253
e 54 632
e 54 327
e 54 866
e 54 348
e 55 950
e 55 784
e 55 815
e 55 991
e 55 999
e 56 433
e 56 736
e 56 971
e 56 789
e 56 280
e 57 588
e 57 546
e 57 832
e 57 336
e 58 456
e 58 153
e 58 595
e 58 717
e 58 399
e 58 767
e 59 507
e 59 692
e 59 205
e 60 600
e 60 261
e 60 909
e 62 864
e 62 552
e 62 665
e 62 218
e 62 167
e 63 330
e 63 256
e 64 1000
e 64 379
e 64 259
e 64 977
e 64 222
e 65 847
e 65 579
e 65 903
e 66 230
e 66 976
e 66 819
e 66 904
e 66 607
e 66 361
e 66 86
e 66 821
e 68 989
e 68 580
e 68 837
e 68 797
e 68 113
e 68 164
e 69 287
e 69 419
e 69 628
e 70 770
e 70 348
e 70 464
e 70 849
e 70 663
e 71 391
e 71 744
e 72 564
e 72 173
e 72 196
e 73 822
e 73 332
e 73 922
e 73 867
e 73 642
e 74 459
e 74 759
e 74 891
e 74 290
e 74 603
e 74 319
e 74 235
e 75 563
e 75 594
e 75 436
e 75 737
e 76 764
e 76 153
e 76 594
e 76 687
e 76 131
e 77 392
e 77 590
e 77 170
e 77 762
e 77 620
e 78 976
e 78 380
e 78 333
e 78 693
e 78 673
e 79 663
e 79 887
e 79 132
e 80 922
e 80 772
e 80 640
e 80 286
e 81 903
e 81 604
e 81 307
e 81 794
e 82 784
e 82 708
e 82 351
e 83 892
e 83 812
e 83 498
e 83 471
e 83 247
e 83 87
e 83 709
e 83 977
e 84 329
e 84 511
e 84 458
e 84 408
e 84 607
e 85 869
e 85 836
e 85 953
e 85 596
e 85 619
e 85 190
e 86 798
e 86 957
e 86 388
e 86 402
e 87 640
e 87 844
e 88 93
e 88 794
e 88 580
e 90 675
e 90 275
e 90 600
e 90 827
e 90 376
e 90 975
e 93 124
e 93 181
e 93 546
e 94 185
e 94 190
e 94 466
e 94 904
e 95 103
e 95 321
e 95 842
e 97 496
e 97 750
e 97 972
e 97 834
e 97 205
e 98 224
e 98 797
e 98 967
e 98 335
e 99 950
e 99 666
e 99 686
e 100 354
e 100 295
e 100 883
e 100 989
e 101 598
e 101 561
e 101 932
e 101 266
e 101 454
e 102 984
e 102 418
e 102 795
e 103 829
e 103 961
e 104 224
e 104 348
e 105 172
e 105 816
e 105 941
e 105 656
e 105 153
e 108 244
e 108 271
e 108 343
e 108 839
e 108 331
e 110 317
e 110 972
e 110 356
e 112 573
e 112 413
e 112 549
e 112 426
e 113 571
e 113 188
e 114 280
e 114 774
e 114 163
e 115 241
e 115 817
e 115 295
e 115 675
e 117 520
e 117 829
e 117 952
e 117 448
e 118 843
e 118 795
e 118 471
e 119 260
e 119 280
e 119 989
e 120 429
e 120 735
e 120 716
e 120 678
e 120 641
e 120 812
e 120 521
e 122 592
e 122 272
e 122 238
e 122 328
e 122 271
e 123 406
e 123 241
e 123 502
e 123 341
e 123 892
e 123 304
e 124 586
e 124 455
e 125 612
e 125 158
e 125 219
e 125 736
e 125 520
e 125 134
e 125 607
e 127 686
e 127 595
e 127 509
e 127 625
e 128 414
e 128 608
e 128 786
e 128 916
e 128 247
e 128 284
e 128 298
e 129 521
e 129 469
e 129 431
e 129 764
e 129 946
e 129 682
e 129 164
e 130 703
e 130 240
e 130 385
e 130 594
e 130 543
e 131 202
e 131 474
e 131 689
e 131 429
e 131 346
e 132 586
e 132 915
e 132 163
e 133 188
e 133 645
e 133 886
e 133 530
e 134 159
e 134 261
e 134 400
e 135 368
e 135 884
e 135 740
e 135 795
e 136 431
e 136 423
e 136 229
e 136 786
e 137 448
e 137 821
e 137 147
e 137 806
e 139 520
e 139 394
e 139 571
e 139 504
e 139 203
e 141 307
e 141 711
e 141 203
e 141 436
e 144 553
e 144 434
e 144 679
e 146 202
e 146 762
e 146 983
e 146 554
e 146 199
e 146 652
e 146 186
e 146 933
e 147 157
e 147 538
e 147 637
e 147 431
e 148 962
e 148 308
e 148 164
e 148 678
e 149 390
e 149 507
e 149 341
e 149 565
e 150 406
e 150 708
e 150 235
e 150 561
e 151 933
e 151 627
e 151 736
e 152 620
e 152 981
e 152 232
e 153 390
e 153 794
e 153 411
e 153 671
e 154 711
e 154 893
e 154 940
e 156 885
e 156 581
e 156 692
e 157 163
e 157 617
e 157 275
e 157 282
e 157 162
e 157 882
e 158 279
e 158 733
e 158 639
e 158 272
e 158 431
e 158 296
e 158 707
e 158 574
e 158 727
e 159 915
e 159 374
e 159 887
e 159 847
e 159 718
e 160 252
e 160 696
e 160 172
e 160 894
e 160 407
e 162 655
e 162 514
e 162 744
e 162 522
e 162 429
e 162 270
e 162 400
e 163 769
e 163 428
e 163 807
e 163 920
e 163 410
e 164 372
e 164 389
e 164 830
e 164 340
e 164 365
e 164 801
e 166 284
e 166 252
e 166 181
e 166 898
e 166 941
e 166 988
e 166 989
e 167 676
e 167 265
e 167 553
e 168 545
e 168 648
e 168 903
e 168 579
e 168 564
e 169 556
e 169 466
e 169 962
e 169 209
e 170 419
e 170 767
e 171 865
e 171 649
e 171 613
e 172 332
e 172 234
e 172 227
e 172 527
e 172 493
e 172 304
e 173 258
e 173 986
e 173 225
e 173 974
e 174 798
e 174 376
e 174 992
e 174 638
e 176 987
e 176 194
e 176 380
e 176 640
e 176 371
e 180 975
e 180 587
e 180 321
e 180 596
e 181 710
e 181 617
e 181 926
e 183 520
e 183 757
e 183 708
e 183 659
e 183 226
e 185 667
e 185 945
e 185 481
e 185 465
e 186 934
e 186 916
e 186 986
e 187 454
e 187 770
e 187 293
e 188 463
e 188 617
e 188 624
e 190 818
e 193 269
e 193 979
e 194 279
e 194 282
e 194 468
e 195 727
e 195 739
e 195 857
e 195 471
e 196 522
e 196 415
e 196 865
e 196 590
e 198 581
e 198 201
e 198 555
e 198 792
e 199 683
e 199 257
e 199 604
e 199 884
e 200 768
e 200 526
e 200 556
e 200 859
e 201 325
e 201 983
e 201 376
e 202 439
e 202 394
e 202 549
e 203 498
e 203 935
e 203 850
e 203 394
e 203 617
e 204 884
e 204 472
e 204 580
e 204 747
e 204 515
e 205 592
e 205 916
e 206 435
e 206 926
e 206 842
e 206 993
e 209 995
e 209 528
e 214 427
e 214 754
e 214 831
e 214 966
e 214 650
e 214 454
e 214 897
e 216 345
e 216 588
e 216 851
e 216 219
e 216 722
e 218 885
e 219 360
e 219 351
e 219 923
e 219 560
e 220 864
e 220 735
e 221 384
e 221 428
e 221 700
e 222 359
e 222 686
e 222 831
e 222 413
e 223 563
e 223 229
e 223 465
e 223 467
e 224 311
e 224 434
e 225 454
e 225 571
e 225 847
e 226 532
e 227 338
e 227 655
e 227 478
e 229 968
e 229 490
e 229 589
e 229 305
e 230 263
e 230 901
e 230 851
e 232 831
e 232 580
e 232 234
e 233 891
e 233 567
e 233 479
e 234 241
e 234 298
e 235 644
e 235 625
e 235 938
e 237 348
e 237 809
e 237 545
e 238 629
e 238 578
e 238 280
e 239 353
e 239 605
e 239 272
e 239 275
e 239 838
e 239 783
e 240 629
e 240 722
e 241 404
e 244 899
e 244 783
e 244 396
e 245 465
e 245 353
e 245 764
e 245 621
e 245 452
e 247 641
e 247 620
e 248 509
e 248 510
e 248 360
e 249 262
e 249 934
e 249 293
e 249 361
e 249 362
e 250 300
e 250 569
e 250 789
e 251 359
e 251 543
e 251 272
e 251 924
e 252 453
e 252 297
e 252 789
e 253 993
e 253 257
e 253 815
e 253 286
e 253 611
e 253 896
e 253 686
e 256 718
e 256 682
e 256 711
e 256 719
e 257 638
e 257 881
e 257 960
e 257 593
e 257 629
e 258 469
e 258 588
e 259 360
e 259 767
e 260 629
e 260 797
e 260 724
e 260 624
e 260 284
e 260 391
e 260 950
e 260 452
e 261 599
e 261 748
e 261 712
e 261 445
e 262 430
e 262 837
e 262 589
e 262 288
e 263 901
e 263 838
e 263 816
e 264 829
e 264 674
e 264 860
e 265 935
e 265 978
e 265 570
e 265 933
e 265 907
e 266 532
e 266 541
e 266 368
e 266 512
e 267 540
e 267 840
e 267 308
e 269 984
e 269 866
e 269 435
e 269 915
e 269 465
e 270 408
e 270 955
e 270 896
e 270 503
e 270 435
e 270 604
e 271 554
e 271 330
e 271 649
e 271 566
e 271 511
e 271 695
e 272 510
e 272 565
e 272 919
e 272 907
e 272 770
e 273 700
e 273 410
e 273 520
e 273 384
e 274 589
e 274 714
e 274 874
e 275 334
e 275 492
e 275 402
e 275 920
e 275 778
e 276 619
e 276 728
e 278 362
e 278 676
e 278 552
e 279 860
e 279 872
e 279 697
e 280 475
e 280 782
e 280 545
e 280 847
e 281 745
e 281 402
e 281 995
e 281 767
e 281 515
e 281 691
e 282 796
e 282 648
e 283 641
e 283 710
e 283 743
e 283 733
e 283 490
e 284 547
e 284 385
e 284 566
e 284 935
e 286 973
e 287 374
e 287 371
e 288 559
e 288 635
e 290 695
e 290 426
e 290 475
e 291 313
e 293 492
e 293 533
e 293 650
e 294 484
e 294 330
e 294 946
e 294 469
e 295 376
e 295 613
e 295 309
e 295 968
e 296 349
e 296 333
e 297 900
e 298 428
e 298 797
e 298 826
e 298 740
e 300 452
e 300 801
e 300 600
e 300 895
e 300 903
e 301 564
e 301 594
e 301 830
e 301 867
e 303 756
e 303 406
e 303 449
e 303 383
e 303 426
e 303 781
e 304 385
e 304 474
e 304 985
e 304 792
e 305 470
e 305 529
e 305 776
e 305 701
e 306 522
e 306 686
e 306 371
e 306 924
e 307 699
e 307 772
e 307 722
e 307 775
e 307 876
e 308 754
e 308 511
e 308 359
e 308 474
e 308 932
e 309 426
e 309 349
e 309 830
e 310 695
e 310 430
e 310 758
e 310 941
e 310 994
e 311 590
e 311 554
e 311 976
e 311 788
e 313 886
e 313 972
e 313 418
e 313 385
e 313 627
e 315 839
e 315 360
e 315 560
e 316 522
e 316 342
e 316 987
e 316 667
e 316 370
e 317 844
e 317 336
e 317 974
e 317 480
e 317 930
e 317 781
e 317 949
e 319 738
e 319 448
e 319 440
e 320 351
e 320 410
e 320 605
e 321 720
e 321 974
e 321 833
e 323 443
e 323 873
e 324 787
e 324 954
e 324 578
e 324 956
e 324 458
e 324 642
e 325 726
e 325 1000
e 325 644
e 325 986
e 327 620
e 327 482
e 327 408
e 327 561
e 328 381
e 328 685
e 328 471
e 328 336
e 329 335
e 329 529
e 329 850
e 330 863
e 331 727
e 331 782
e 332 415
e 332 954
e 332 578
e 332 912
e 333 901
e 334 869
e 335 716
e 335 970
e 336 365
e 338 604
e 338 559
e 338 807
e 339 962
e 339 844
e 339 946
e 339 973
e 339 748
e 340 600
e 340 401
e 341 389
e 341 513
e 342 537
e 342 582
e 343 582
e 343 941
e 344 640
e 344 415
e 344 619
e 344 939
e 344 985
e 345 981
e 345 915
e 346 507
e 346 989
e 346 708
e 346 890
e 346 788
e 348 826
e 348 838
e 349 554
e 349 570
e 351 926
e 351 753
e 351 504
e 351 481
e 351 374
e 353 587
e 353 568
e 354 390
e 354 657
e 354 369
e 354 443
e 354 776
e 354 521
e 354 672
e 354 407
e 356 574
e 356 750
e 357 612
e 357 561
e 357 453
e 359 796
e 359 660
e 359 762
e 359 951
e 359 732
e 359 781
e 359 895
e 360 833
e 360 871
e 360 447
e 360 965
e 361 826
e 361 745
e 362 515
e 362 521
e 362 741
e 363 845
e 363 745
e 363 809
e 363 533
e 364 681
e 364 608
e 364 759
e 364 768
e 365 786
e 365 891
e 366 864
e 366 454
e 366 469
e 366 989
e 366 451
e 366 453
e 368 778
e 369 406
e 369 571
e 369 418
e 369 742
e 370 434
e 370 822
e 371 769
e 371 764
e 371 443
e 372 513
e 372 381
e 372 869
e 372 537
e 374 479
e 374 867
e 374 718
e 376 892
e 376 692
e 376 423
e 379 559
e 379 577
e 380 522
e 380 640
e 381 754
e 381 741
e 381 603
e 383 554
e 383 778
e 384 838
e 385 394
e 385 966
e 388 628
e 388 899
e 389 451
e 389 504
e 389 431
e 389 600
e 389 470
e 390 795
e 390 940
e 391 859
e 391 448
e 391 719
e 391 865
e 391 665
e 391 903
e 392 579
e 394 553
e 394 789
e 394 738
e 396 509
e 396 941
e 399 876
e 399 607
e 400 602
e 400 714
e 401 775
e 401 563
e 402 984
e 404 547
e 404 772
e 405 699
e 405 949
e 405 442
e 405 610
e 406 675
e 407 594
e 407 957
e 407 640
e 408 567
e 410 628
e 410 748
e 410 537
e 410 724
e 411 795
e 411 573
e 412 467
e 412 876
e 413 754
e 413 460
e 414 967
e 414 810
e 414 742
e 414 848
e 414 924
e 414 938
e 418 962
e 418 781
e 418 464
e 418 846
e 418 981
e 419 674
e 423 876
e 423 675
e 424 865
e 424 745
e 424 886
e 426 502
e 426 439
e 426 830
e 427 979
e 427 511
e 428 992
e 429 846
e 429 453
e 430 440
e 430 464
e 431 954
e 431 503
e 431 452
e 431 974
e 433 844
e 433 703
e 433 455
e 433 710
e 433 966
e 434 491
e 436 900
e 436 611
e 436 505
e 438 921
e 438 679
e 438 747
e 438 912
e 438 523
e 439 510
e 439 857
e 440 532
e 442 505
e 442 555
e 442 703
e 443 635
e 443 939
e 443 496
e 444 467
e 444 774
e 444 844
e 445 743
e 445 829
e 447 554
e 447 467
e 447 686
e 447 951
e 448 599
e 449 849
e 449 775
e 449 660
e 450 844
e 450 458
e 450 512
e 451 920
e 451 525
e 451 561
e 451 655
e 451 983
e 453 530
e 453 767
e 454 463
e 455 627
e 456 659
e 458 739
e 458 971
e 458 849
e 459 966
e 459 571
e 459 586
e 459 480
e 459 720
e 460 752
e 460 952
e 462 522
e 462 493
e 462 965
e 463 744
e 463 794
e 463 836
e 464 940
e 464 968
e 465 727
e 465 981
e 465 754
e 466 570
e 467 470
e 467 963
e 467 778
e 468 822
e 468 832
e 468 768
e 469 762
e 469 971
e 469 587
e 469 624
e 469 903
e 470 873
e 470 529
e 471 511
e 471 722
e 472 783
e 472 617
e 474 949
e 474 629
e 474 759
e 475 587
e 478 522
e 478 511
e 479 753
e 479 821
e 479 907
e 479 530
e 480 733
e 480 686
e 480 933
e 481 676
e 482 571
e 482 517
e 482 573
e 482 629
e 484 992
e 484 830
e 485 845
e 485 884
e 485 602
e 485 620
e 485 566
e 485 519
e 486 857
e 486 679
e 486 595
e 486 898
e 486 916
e 486 747
e 486 859
e 490 890
e 490 915
e 491 933
e 491 593
e 492 963
e 492 502
e 492 648
e 493 514
e 493 865
e 493 717
e 493 706
e 495 644
e 495 816
e 495 515
e 495 633
e 496 965
e 496 1000
e 496 924
e 498 867
e 498 628
e 498 695
e 502 607
e 502 717
e 503 514
e 503 622
e 504 574
e 505 567
e 507 626
e 507 700
e 507 810
e 507 890
e 509 915
e 510 980
e 511 878
e 512 855
e 512 666
e 512 656
e 513 768
e 513 874
e 514 935
e 515 786
e 515 905
e 517 744
e 517 845
e 517 793
e 517 738
e 519 695
e 519 600
e 519 898
e 520 972
e 521 836
e 521 640
e 521 708
e 522 571
e 522 738
e 522 947
e 523 548
e 523 754
e 523 707
e 525 883
e 525 866
e 526 683
e 526 798
e 527 577
e 527 718
e 528 681
e 528 814
e 528 532
e 529 674
e 529 612
e 529 806
e 529 737
e 530 940
e 530 685
e 532 843
e 533 997
e 533 549
e 537 938
e 538 632
e 538 605
e 540 672
e 540 689
e 540 547
e 540 571
e 541 577
e 541 843
e 541 860
e 541 664
e 541 818
e 541 991
e 543 855
e 545 970
e 545 833
e 545 782
e 546 561
e 546 673
e 547 700
e 548 664
e 548 766
e 548 762
e 549 618
e 549 697
e 549 580
e 551 1000
e 551 566
e 552 781
e 553 947
e 553 611
e 553 673
e 554 769
e 555 577
e 555 921
e 556 568
e 559 707
e 560 837
e 560 763
e 561 732
e 564 953
e 565 882
e 565 695
e 566 689
e 566 886
e 567 735
e 567 955
e 568 827
e 568 865
e 568 809
e 569 695
e 569 604
e 569 981
e 570 728
e 570 629
e 571 764
e 573 831
e 573 742
e 573 731
e 574 707
e 574 978
e 578 763
e 578 788
e 578 957
e 579 932
e 581 956
e 581 818
e 581 613
e 581 834
e 582 809
e 582 769
e 582 687
e 586 596
e 586 830
e 587 916
e 588 845
e 588 720
e 590 812
e 592 788
e 593 961
e 594 620
e 594 953
e 595 839
e 595 744
e 596 627
e 597 709
e 597 920
e 597 993
e 597 676
e 598 958
e 598 997
e 598 630
e 599 988
e 599 649
e 600 674
e 601 625
e 601 940
e 602 874
e 602 773
e 603 665
e 605 687
e 605 933
e 605 709
e 605 915
e 607 727
e 607 701
e 607 927
e 607 930
e 607 949
e 608 685
e 608 933
e 610 773
e 610 960
e 610 951
e 611 640
e 611 894
e 613 639
e 617 678
e 617 718
e 618 648
e 618 834
e 618 781
e 619 993
e 619 969
e 620 640
e 620 666
e 621 866
e 622 932
e 622 773
e 624 827
e 624 869
e 624 867
e 625 807
e 625 678
e 626 673
e 626 985
e 627 696
e 628 656
e 628 997
e 628 915
e 629 698
e 629 748
e 629 955
e 630 755
e 630 993
e 632 652
e 633 716
e 633 714
e 635 961
e 635 793
e 637 864
e 637 878
e 637 842
e 638 869
e 638 673
e 638 957
e 639 717
e 639 932
e 639 712
e 639 817
e 640 768
e 641 851
e 642 892
e 644 645
e 645 737
e 648 874
e 649 897
e 649 776
e 652 727
e 652 965
e 655 991
e 656 685
e 657 774
e 657 850
e 659 782
e 659 843
e 659 844
e 660 872
e 660 792
e 663 733
e 664 978
e 664 695
e 665 900
e 665 731
e 665 927
e 666 752
e 667 711
e 667 778
e 671 781
e 671 923
e 673 919
e 674 972
e 674 934
e 674 984
e 674 869
e 678 706
e 679 767
e 679 769
e 681 1000
e 681 817
e 682 742
e 683 957
e 683 739
e 683 924
e 686 831
e 686 740
e 686 698
e 691 840
e 691 756
e 692 884
e 693 815
e 696 759
e 697 895
e 697 840
e 698 848
e 698 951
e 700 767
e 701 871
e 701 873
e 703 885
e 706 709
e 707 827
e 707 958
e 707 831
e 709 949
e 711 950
e 711 781
e 712 872
e 714 980
e 716 833
e 716 845
e 717 735
e 717 736
e 718 961
e 718 822
e 718 897
e 719 793
e 720 750
e 722 758
e 722 866
e 724 834
e 724 762
e 724 874
e 726 950
e 726 756
e 728 796
e 728 926
e 731 768
e 732 823
e 733 935
e 733 979
e 733 755
e 735 847
e 736 819
e 736 971
e 737 788
e 737 846
e 737 999
e 738 981
e 738 985
e 738 978
e 743 915
e 743 810
e 745 766
e 747 883
e 747 904
e 747 893
e 748 940
e 752 898
e 753 793
e 755 991
e 757 977
e 757 973
e 758 980
e 762 768
e 762 783
e 763 814
e 764 827
e 766 869
e 766 865
e 767 922
e 769 955
e 770 844
e 772 891
e 773 840
e 775 847
e 776 963
e 778 975
e 781 932
e 781 787
e 782 893
e 783 896
e 787 994
e 788 946
e 788 988
e 788 819
e 792 896
e 792 840
e 792 865
e 795 932
e 798 957
e 798 863
e 801 881
e 801 963
e 806 901
e 806 935
e 806 849
e 809 975
e 812 850
e 814 921
e 815 957
e 816 872
e 818 958
e 818 871
e 821 958
e 823 995
e 829 832
e 830 898
e 830 962
e 832 872
e 833 987
e 834 986
e 836 985
e 839 882
e 846 994
e 848 987
e 850 930
e 855 898
e 857 956
e 860 912
e 863 894
e 867 900
e 869 1000
e 872 957
e 874 927
e 881 999
e 886 950
e 887 947
e 890 899
e 892 967
e 892 909
e 896 974
e 898 963
e 899 900
e 899 909
e 901 988
e 905 967
e 905 954
e 919 935
e 920 930
e 921 945
e 921 924
e 921 958
e 922 992
e 938 968
e 939 993
e 940 976
e 947 970
e 951 984
e 954 980
e 960 963
e 967 997
e 976 999
e 984 987
