txt_Ins/graph-1000-697.txt
n 1000
e 1 966
e 1 671
e 1 895
e 1 269
e 1 972
e 1 588
e 2 485
e 2 525
e 2 524
e 2 270
e 2 289
e 2 568
e 3 201
e 3 411
e 3 982
e 3 162
e 4 640
e 4 570
e 4 518
e 4 726
e 4 628
e 4 925
e 4 150
e 4 148
e 4 275
e 5 749
e 5 754
e 5 344
e 5 45
e 5 544
e 6 811
e 6 931
e 6 109
e 6 678
e 6 588
e 7 347
e 7 327
e 7 208
e 7 702
e 7 10
e 8 897
e 8 699
e 8 52
e 8 446
e 8 219
e 10 607
e 10 632
e 10 783
e 10 620
e 10 264
e 10 423
e 12 968
e 12 57
e 12 189
e 12 516
e 12 306
e 13 967
e 13 579
e 13 706
e 13 102
e 14 944
e 14 881
e 14 600
e 14 525
e 14 23
e 14 736
e 15 391
e 15 390
e 15 620
e 15 184
e 15 140
e 16 296
e 16 451
e 16 588
e 16 32
e 16 21
e 16 169
e 17 423
e 17 726
e 17 805
e 17 49
e 17 296
e 19 563
e 19 829
e 19 322
e 19 510
e 19 922
e 19 388
e 19 506
e 19 649
e 19 126
e 19 877
e 20 269
e 20 263
e 20 282
e 21 327
e 21 775
e 21 234
e 21 345
e 22 363
e 22 70
e 22 290
e 22 218
e 22 904
e 22 933
e 23 871
e 23 54
e 23 100
e 24 698
e 24 286
e 24 462
e 25 464
e 25 771
e 25 395
e 25 233
e 26 343
e 26 312
e 26 948
e 26 968
e 27 239
e 27 309
e 27 217
e 28 324
e 28 268
e 28 439
e 28 433
e 29 451
e 29 775
e 29 951
e 29 55
e 29 333
e 30 501
e 30 717
e 30 290
e 30 948
e 31 531
e 31 740
e 31 113
e 32 265
e 32 417
e 32 842
e 33 508
e 33 678
e 33 818
e 34 680
e 34 991
e 34 129
e 34 742
e 35 322
e 35 731
e 35 891
e 35 454
e 36 49
e 36 192
e 36 375
e 37 716
e 37 872
e 37 964
e 37 107
e 38 550
e 38 948
e 38 185
e 39 157
e 39 57
e 39 193
e 39 362
e 39 237
e 40 992
e 40 52
e 40 62
e 40 54
e 42 478
e 42 355
e 42 362
e 42 103
e 42 940
e 42 884
e 44 900
e 44 390
e 44 249
e 44 828
e 45 437
e 45 225
e 45 822
e 45 153
e 45 580
e 45 692
e 45 452
e 45 305
e 48 892
e 48 328
e 48 127
e 48 808
e 49 741
e 49 466
e 50 719
e 50 596
e 50 987
e 51 736
e 51 117
e 51 899
e 51 723
e 51 403
e 52 455
e 52 882
e 52 965
e 52 274
e 52 185
e 53 393
e 53 832
e 53 327
e 53 252
e 53 631
e 53 326
e 53 865
e 53 347
e 54 949
e 54 783
e 54 814
e 54 990
e 54 998
e 55 432
e 55 735
e 55 970
e 55 788
e 55 279
e 56 587
e 56 545
e 56 831
e 56 335
e 57 455
e 57 152
e 57 594
e 57 716
e 57 398
e 57 766
e 58 506
e 58 691
e 58 204
e 59 599
e 59 260
e 59 908
e 61 863
e 61 551
e 61 664
e 61 217
e 61 166
e 62 329
e 62 255
e 63 999
e 63 378
e 63 258
e 63 976
e 63 221
e 64 846
e 64 578
e 64 902
e 65 229
e 65 975
e 65 818
e 65 903
e 65 606
e 65 360
e 65 85
e 65 820
e 67 988
e 67 579
e 67 836
e 67 796
e 67 112
e 67 163
e 68 286
e 68 418
e 68 627
e 69 769
e 69 347
e 69 463
e 69 848
e 69 662
e 70 390
e 70 743
e 71 563
e 71 172
e 71 195
e 72 821
e 72 331
e 72 921
e 72 866
e 72 641
e 73 458
e 73 758
e 73 890
e 73 289
e 73 602
e 73 318
e 73 234
e 74 562
e 74 593
e 74 435
e 74 736
e 75 763
e 75 152
e 75 593
e 75 686
e 75 130
e 76 391
e 76 589
e 76 169
e 76 761
e 76 619
e 77 975
e 77 379
e 77 332
e 77 692
e 77 672
e 78 662
e 78 886
e 78 131
e 79 921
e 79 771
e 79 639
e 79 285
e 80 902
e 80 603
e 80 306
e 80 793
e 81 783
e 81 707
e 81 350
e 82 891
e 82 811
e 82 497
e 82 470
e 82 246
e 82 86
e 82 708
e 82 976
e 83 328
e 83 510
e 83 457
e 83 407
e 83 606
e 84 868
e 84 835
e 84 952
e 84 595
e 84 618
e 84 189
e 85 797
e 85 956
e 85 387
e 85 401
e 86 639
e 86 843
e 87 92
e 87 793
e 87 579
e 89 674
e 89 274
e 89 599
e 89 826
e 89 375
e 89 974
e 92 123
e 92 180
e 92 545
e 93 184
e 93 189
e 93 465
e 93 903
e 94 102
e 94 320
e 94 841
e 96 495
e 96 749
e 96 971
e 96 833
e 96 204
e 97 223
e 97 796
e 97 966
e 97 334
e 98 949
e 98 665
e 98 685
e 99 353
e 99 294
e 99 882
e 99 988
e 100 597
e 100 560
e 100 931
e 100 265
e 100 453
e 101 983
e 101 417
e 101 794
e 102 828
e 102 960
e 103 223
e 103 347
e 104 171
e 104 815
e 104 940
e 104 655
e 104 152
e 107 243
e 107 270
e 107 342
e 107 838
e 107 330
e 109 316
e 109 971
e 109 355
e 111 572
e 111 412
e 111 548
e 111 425
e 112 570
e 112 187
e 113 279
e 113 773
e 113 162
e 114 240
e 114 816
e 114 294
e 114 674
e 116 519
e 116 828
e 116 951
e 116 447
e 117 842
e 117 794
e 117 470
e 118 259
e 118 279
e 118 988
e 119 428
e 119 734
e 119 715
e 119 677
e 119 640
e 119 811
e 119 520
e 121 591
e 121 271
e 121 237
e 121 327
e 121 270
e 122 405
e 122 240
e 122 501
e 122 340
e 122 891
e 122 303
e 123 585
e 123 454
e 124 611
e 124 157
e 124 218
e 124 735
e 124 519
e 124 133
e 124 606
e 126 685
e 126 594
e 126 508
e 126 624
e 127 413
e 127 607
e 127 785
e 127 915
e 127 246
e 127 283
e 127 297
e 128 520
e 128 468
e 128 430
e 128 763
e 128 945
e 128 681
e 128 163
e 129 702
e 129 239
e 129 384
e 129 593
e 129 542
e 130 201
e 130 473
e 130 688
e 130 428
e 130 345
e 131 585
e 131 914
e 131 162
e 132 187
e 132 644
e 132 885
e 132 529
e 133 158
e 133 260
e 133 399
e 134 367
e 134 883
e 134 739
e 134 794
e 135 430
e 135 422
e 135 228
e 135 785
e 136 447
e 136 820
e 136 146
e 136 805
e 138 519
e 138 393
e 138 570
e 138 503
e 138 202
e 140 306
e 140 710
e 140 202
e 140 435
e 143 552
e 143 433
e 143 678
e 145 201
e 145 761
e 145 982
e 145 553
e 145 198
e 145 651
e 145 185
e 145 932
e 146 156
e 146 537
e 146 636
e 146 430
e 147 961
e 147 307
e 147 163
e 147 677
e 148 389
e 148 506
e 148 340
e 148 564
e 149 405
e 149 707
e 149 234
e 149 560
e 150 932
e 150 626
e 150 735
e 151 619
e 151 980
e 151 231
e 152 389
e 152 793
e 152 410
e 152 670
e 153 710
e 153 892
e 153 939
e 155 884
e 155 580
e 155 691
e 156 162
e 156 616
e 156 274
e 156 281
e 156 161
e 156 881
e 157 278
e 157 732
e 157 638
e 157 271
e 157 430
e 157 295
e 157 706
e 157 573
e 157 726
e 158 914
e 158 373
e 158 886
e 158 846
e 158 717
e 159 251
e 159 695
e 159 171
e 159 893
e 159 406
e 161 654
e 161 513
e 161 743
e 161 521
e 161 428
e 161 269
e 161 399
e 162 768
e 162 427
e 162 806
e 162 919
e 162 409
e 163 371
e 163 388
e 163 829
e 163 339
e 163 364
e 163 800
e 165 283
e 165 251
e 165 180
e 165 897
e 165 940
e 165 987
e 165 988
e 166 675
e 166 264
e 166 552
e 167 544
e 167 647
e 167 902
e 167 578
e 167 563
e 168 555
e 168 465
e 168 961
e 168 208
e 169 418
e 169 766
e 170 864
e 170 648
e 170 612
e 171 331
e 171 233
e 171 226
e 171 526
e 171 492
e 171 303
e 172 257
e 172 985
e 172 224
e 172 973
e 173 797
e 173 375
e 173 991
e 173 637
e 175 986
e 175 193
e 175 379
e 175 639
e 175 370
e 179 974
e 179 586
e 179 320
e 179 595
e 180 709
e 180 616
e 180 925
e 182 519
e 182 756
e 182 707
e 182 658
e 182 225
e 184 666
e 184 944
e 184 480
e 184 464
e 185 933
e 185 915
e 185 985
e 186 453
e 186 769
e 186 292
e 187 462
e 187 616
e 187 623
e 189 817
e 192 268
e 192 978
e 193 278
e 193 281
e 193 467
e 194 726
e 194 738
e 194 856
e 194 470
e 195 521
e 195 414
e 195 864
e 195 589
e 197 580
e 197 200
e 197 554
e 197 791
e 198 682
e 198 256
e 198 603
e 198 883
e 199 767
e 199 525
e 199 555
e 199 858
e 200 324
e 200 982
e 200 375
e 201 438
e 201 393
e 201 548
e 202 497
e 202 934
e 202 849
e 202 393
e 202 616
e 203 883
e 203 471
e 203 579
e 203 746
e 203 514
e 204 591
e 204 915
e 205 434
e 205 925
e 205 841
e 205 992
e 208 994
e 208 527
e 213 426
e 213 753
e 213 830
e 213 965
e 213 649
e 213 453
e 213 896
e 215 344
e 215 587
e 215 850
e 215 218
e 215 721
e 217 884
e 218 359
e 218 350
e 218 922
e 218 559
e 219 863
e 219 734
e 220 383
e 220 427
e 220 699
e 221 358
e 221 685
e 221 830
e 221 412
e 222 562
e 222 228
e 222 464
e 222 466
e 223 310
e 223 433
e 224 453
e 224 570
e 224 846
e 225 531
e 226 337
e 226 654
e 226 477
e 228 967
e 228 489
e 228 588
e 228 304
e 229 262
e 229 900
e 229 850
e 231 830
e 231 579
e 231 233
e 232 890
e 232 566
e 232 478
e 233 240
e 233 297
e 234 643
e 234 624
e 234 937
e 236 347
e 236 808
e 236 544
e 237 628
e 237 577
e 237 279
e 238 352
e 238 604
e 238 271
e 238 274
e 238 837
e 238 782
e 239 628
e 239 721
e 240 403
e 243 898
e 243 782
e 243 395
e 244 464
e 244 352
e 244 763
e 244 620
e 244 451
e 246 640
e 246 619
e 247 508
e 247 509
e 247 359
e 248 261
e 248 933
e 248 292
e 248 360
e 248 361
e 249 299
e 249 568
e 249 788
e 250 358
e 250 542
e 250 271
e 250 923
e 251 452
e 251 296
e 251 788
e 252 992
e 252 256
e 252 814
e 252 285
e 252 610
e 252 895
e 252 685
e 255 717
e 255 681
e 255 710
e 255 718
e 256 637
e 256 880
e 256 959
e 256 592
e 256 628
e 257 468
e 257 587
e 258 359
e 258 766
e 259 628
e 259 796
e 259 723
e 259 623
e 259 283
e 259 390
e 259 949
e 259 451
e 260 598
e 260 747
e 260 711
e 260 444
e 261 429
e 261 836
e 261 588
e 261 287
e 262 900
e 262 837
e 262 815
e 263 828
e 263 673
e 263 859
e 264 934
e 264 977
e 264 569
e 264 932
e 264 906
e 265 531
e 265 540
e 265 367
e 265 511
e 266 539
e 266 839
e 266 307
e 268 983
e 268 865
e 268 434
e 268 914
e 268 464
e 269 407
e 269 954
e 269 895
e 269 502
e 269 434
e 269 603
e 270 553
e 270 329
e 270 648
e 270 565
e 270 510
e 270 694
e 271 509
e 271 564
e 271 918
e 271 906
e 271 769
e 272 699
e 272 409
e 272 519
e 272 383
e 273 588
e 273 713
e 273 873
e 274 333
e 274 491
e 274 401
e 274 919
e 274 777
e 275 618
e 275 727
e 277 361
e 277 675
e 277 551
e 278 859
e 278 871
e 278 696
e 279 474
e 279 781
e 279 544
e 279 846
e 280 744
e 280 401
e 280 994
e 280 766
e 280 514
e 280 690
e 281 795
e 281 647
e 282 640
e 282 709
e 282 742
e 282 732
e 282 489
e 283 546
e 283 384
e 283 565
e 283 934
e 285 972
e 286 373
e 286 370
e 287 558
e 287 634
e 289 694
e 289 425
e 289 474
e 290 312
e 292 491
e 292 532
e 292 649
e 293 483
e 293 329
e 293 945
e 293 468
e 294 375
e 294 612
e 294 308
e 294 967
e 295 348
e 295 332
e 296 899
e 297 427
e 297 796
e 297 825
e 297 739
e 299 451
e 299 800
e 299 599
e 299 894
e 299 902
e 300 563
e 300 593
e 300 829
e 300 866
e 302 755
e 302 405
e 302 448
e 302 382
e 302 425
e 302 780
e 303 384
e 303 473
e 303 984
e 303 791
e 304 469
e 304 528
e 304 775
e 304 700
e 305 521
e 305 685
e 305 370
e 305 923
e 306 698
e 306 771
e 306 721
e 306 774
e 306 875
e 307 753
e 307 510
e 307 358
e 307 473
e 307 931
e 308 425
e 308 348
e 308 829
e 309 694
e 309 429
e 309 757
e 309 940
e 309 993
e 310 589
e 310 553
e 310 975
e 310 787
e 312 885
e 312 971
e 312 417
e 312 384
e 312 626
e 314 838
e 314 359
e 314 559
e 315 521
e 315 341
e 315 986
e 315 666
e 315 369
e 316 843
e 316 335
e 316 973
e 316 479
e 316 929
e 316 780
e 316 948
e 318 737
e 318 447
e 318 439
e 319 350
e 319 409
e 319 604
e 320 719
e 320 973
e 320 832
e 322 442
e 322 872
e 323 786
e 323 953
e 323 577
e 323 955
e 323 457
e 323 641
e 324 725
e 324 999
e 324 643
e 324 985
e 326 619
e 326 481
e 326 407
e 326 560
e 327 380
e 327 684
e 327 470
e 327 335
e 328 334
e 328 528
e 328 849
e 329 862
e 330 726
e 330 781
e 331 414
e 331 953
e 331 577
e 331 911
e 332 900
e 333 868
e 334 715
e 334 969
e 335 364
e 337 603
e 337 558
e 337 806
e 338 961
e 338 843
e 338 945
e 338 972
e 338 747
e 339 599
e 339 400
e 340 388
e 340 512
e 341 536
e 341 581
e 342 581
e 342 940
e 343 639
e 343 414
e 343 618
e 343 938
e 343 984
e 344 980
e 344 914
e 345 506
e 345 988
e 345 707
e 345 889
e 345 787
e 347 825
e 347 837
e 348 553
e 348 569
e 350 925
e 350 752
e 350 503
e 350 480
e 350 373
e 352 586
e 352 567
e 353 389
e 353 656
e 353 368
e 353 442
e 353 775
e 353 520
e 353 671
e 353 406
e 355 573
e 355 749
e 356 611
e 356 560
e 356 452
e 358 795
e 358 659
e 358 761
e 358 950
e 358 731
e 358 780
e 358 894
e 359 832
e 359 870
e 359 446
e 359 964
e 360 825
e 360 744
e 361 514
e 361 520
e 361 740
e 362 844
e 362 744
e 362 808
e 362 532
e 363 680
e 363 607
e 363 758
e 363 767
e 364 785
e 364 890
e 365 863
e 365 453
e 365 468
e 365 988
e 365 450
e 365 452
e 367 777
e 368 405
e 368 570
e 368 417
e 368 741
e 369 433
e 369 821
e 370 768
e 370 763
e 370 442
e 371 512
e 371 380
e 371 868
e 371 536
e 373 478
e 373 866
e 373 717
e 375 891
e 375 691
e 375 422
e 378 558
e 378 576
e 379 521
e 379 639
e 380 753
e 380 740
e 380 602
e 382 553
e 382 777
e 383 837
e 384 393
e 384 965
e 387 627
e 387 898
e 388 450
e 388 503
e 388 430
e 388 599
e 388 469
e 389 794
e 389 939
e 390 858
e 390 447
e 390 718
e 390 864
e 390 664
e 390 902
e 391 578
e 393 552
e 393 788
e 393 737
e 395 508
e 395 940
e 398 875
e 398 606
e 399 601
e 399 713
e 400 774
e 400 562
e 401 983
e 403 546
e 403 771
e 404 698
e 404 948
e 404 441
e 404 609
e 405 674
e 406 593
e 406 956
e 406 639
e 407 566
e 409 627
e 409 747
e 409 536
e 409 723
e 410 794
e 410 572
e 411 466
e 411 875
e 412 753
e 412 459
e 413 966
e 413 809
e 413 741
e 413 847
e 413 923
e 413 937
e 417 961
e 417 780
e 417 463
e 417 845
e 417 980
e 418 673
e 422 875
e 422 674
e 423 864
e 423 744
e 423 885
e 425 501
e 425 438
e 425 829
e 426 978
e 426 510
e 427 991
e 428 845
e 428 452
e 429 439
e 429 463
e 430 953
e 430 502
e 430 451
e 430 973
e 432 843
e 432 702
e 432 454
e 432 709
e 432 965
e 433 490
e 435 899
e 435 610
e 435 504
e 437 920
e 437 678
e 437 746
e 437 911
e 437 522
e 438 509
e 438 856
e 439 531
e 441 504
e 441 554
e 441 702
e 442 634
e 442 938
e 442 495
e 443 466
e 443 773
e 443 843
e 444 742
e 444 828
e 446 553
e 446 466
e 446 685
e 446 950
e 447 598
e 448 848
e 448 774
e 448 659
e 449 843
e 449 457
e 449 511
e 450 919
e 450 524
e 450 560
e 450 654
e 450 982
e 452 529
e 452 766
e 453 462
e 454 626
e 455 658
e 457 738
e 457 970
e 457 848
e 458 965
e 458 570
e 458 585
e 458 479
e 458 719
e 459 751
e 459 951
e 461 521
e 461 492
e 461 964
e 462 743
e 462 793
e 462 835
e 463 939
e 463 967
e 464 726
e 464 980
e 464 753
e 465 569
e 466 469
e 466 962
e 466 777
e 467 821
e 467 831
e 467 767
e 468 761
e 468 970
e 468 586
e 468 623
e 468 902
e 469 872
e 469 528
e 470 510
e 470 721
e 471 782
e 471 616
e 473 948
e 473 628
e 473 758
e 474 586
e 477 521
e 477 510
e 478 752
e 478 820
e 478 906
e 478 529
e 479 732
e 479 685
e 479 932
e 480 675
e 481 570
e 481 516
e 481 572
e 481 628
e 483 991
e 483 829
e 484 844
e 484 883
e 484 601
e 484 619
e 484 565
e 484 518
e 485 856
e 485 678
e 485 594
e 485 897
e 485 915
e 485 746
e 485 858
e 489 889
e 489 914
e 490 932
e 490 592
e 491 962
e 491 501
e 491 647
e 492 513
e 492 864
e 492 716
e 492 705
e 494 643
e 494 815
e 494 514
e 494 632
e 495 964
e 495 999
e 495 923
e 497 866
e 497 627
e 497 694
e 501 606
e 501 716
e 502 513
e 502 621
e 503 573
e 504 566
e 506 625
e 506 699
e 506 809
e 506 889
e 508 914
e 509 979
e 510 877
e 511 854
e 511 665
e 511 655
e 512 767
e 512 873
e 513 934
e 514 785
e 514 904
e 516 743
e 516 844
e 516 792
e 516 737
e 518 694
e 518 599
e 518 897
e 519 971
e 520 835
e 520 639
e 520 707
e 521 570
e 521 737
e 521 946
e 522 547
e 522 753
e 522 706
e 524 882
e 524 865
e 525 682
e 525 797
e 526 576
e 526 717
e 527 680
e 527 813
e 527 531
e 528 673
e 528 611
e 528 805
e 528 736
e 529 939
e 529 684
e 531 842
e 532 996
e 532 548
e 536 937
e 537 631
e 537 604
e 539 671
e 539 688
e 539 546
e 539 570
e 540 576
e 540 842
e 540 859
e 540 663
e 540 817
e 540 990
e 542 854
e 544 969
e 544 832
e 544 781
e 545 560
e 545 672
e 546 699
e 547 663
e 547 765
e 547 761
e 548 617
e 548 696
e 548 579
e 550 999
e 550 565
e 551 780
e 552 946
e 552 610
e 552 672
e 553 768
e 554 576
e 554 920
e 555 567
e 558 706
e 559 836
e 559 762
e 560 731
e 563 952
e 564 881
e 564 694
e 565 688
e 565 885
e 566 734
e 566 954
e 567 826
e 567 864
e 567 808
e 568 694
e 568 603
e 568 980
e 569 727
e 569 628
e 570 763
e 572 830
e 572 741
e 572 730
e 573 706
e 573 977
e 577 762
e 577 787
e 577 956
e 578 931
e 580 955
e 580 817
e 580 612
e 580 833
e 581 808
e 581 768
e 581 686
e 585 595
e 585 829
e 586 915
e 587 844
e 587 719
e 589 811
e 591 787
e 592 960
e 593 619
e 593 952
e 594 838
e 594 743
e 595 626
e 596 708
e 596 919
e 596 992
e 596 675
e 597 957
e 597 996
e 597 629
e 598 987
e 598 648
e 599 673
e 600 624
e 600 939
e 601 873
e 601 772
e 602 664
e 604 686
e 604 932
e 604 708
e 604 914
e 606 726
e 606 700
e 606 926
e 606 929
e 606 948
e 607 684
e 607 932
e 609 772
e 609 959
e 609 950
e 610 639
e 610 893
e 612 638
e 616 677
e 616 717
e 617 647
e 617 833
e 617 780
e 618 992
e 618 968
e 619 639
e 619 665
e 620 865
e 621 931
e 621 772
e 623 826
e 623 868
e 623 866
e 624 806
e 624 677
e 625 672
e 625 984
e 626 695
e 627 655
e 627 996
e 627 914
e 628 697
e 628 747
e 628 954
e 629 754
e 629 992
e 631 651
e 632 715
e 632 713
e 634 960
e 634 792
e 636 863
e 636 877
e 636 841
e 637 868
e 637 672
e 637 956
e 638 716
e 638 931
e 638 711
e 638 816
e 639 767
e 640 850
e 641 891
e 643 644
e 644 736
e 647 873
e 648 896
e 648 775
e 651 726
e 651 964
e 654 990
e 655 684
e 656 773
e 656 849
e 658 781
e 658 842
e 658 843
e 659 871
e 659 791
e 662 732
e 663 977
e 663 694
e 664 899
e 664 730
e 664 926
e 665 751
e 666 710
e 666 777
e 670 780
e 670 922
e 672 918
e 673 971
e 673 933
e 673 983
e 673 868
e 677 705
e 678 766
e 678 768
e 680 999
e 680 816
e 681 741
e 682 956
e 682 738
e 682 923
e 685 830
e 685 739
e 685 697
e 690 839
e 690 755
e 691 883
e 692 814
e 695 758
e 696 894
e 696 839
e 697 847
e 697 950
e 699 766
e 700 870
e 700 872
e 702 884
e 705 708
e 706 826
e 706 957
e 706 830
e 708 948
e 710 949
e 710 780
e 711 871
e 713 979
e 715 832
e 715 844
e 716 734
e 716 735
e 717 960
e 717 821
e 717 896
e 718 792
e 719 749
e 721 757
e 721 865
e 723 833
e 723 761
e 723 873
e 725 949
e 725 755
e 727 795
e 727 925
e 730 767
e 731 822
e 732 934
e 732 978
e 732 754
e 734 846
e 735 818
e 735 970
e 736 787
e 736 845
e 736 998
e 737 980
e 737 984
e 737 977
e 742 914
e 742 809
e 744 765
e 746 882
e 746 903
e 746 892
e 747 939
e 751 897
e 752 792
e 754 990
e 756 976
e 756 972
e 757 979
e 761 767
e 761 782
e 762 813
e 763 826
e 765 868
e 765 864
e 766 921
e 768 954
e 769 843
e 771 890
e 772 839
e 774 846
e 775 962
e 777 974
e 780 931
e 780 786
e 781 892
e 782 895
e 786 993
e 787 945
e 787 987
e 787 818
e 791 895
e 791 839
e 791 864
e 794 931
e 797 956
e 797 862
e 800 880
e 800 962
e 805 900
e 805 934
e 805 848
e 808 974
e 811 849
e 813 920
e 814 956
e 815 871
e 817 957
e 817 870
e 820 957
e 822 994
e 828 831
e 829 897
e 829 961
e 831 871
e 832 986
e 833 985
e 835 984
e 838 881
e 845 993
e 847 986
e 849 929
e 854 897
e 856 955
e 859 911
e 862 893
e 866 899
e 868 999
e 871 956
e 873 926
e 880 998
e 885 949
e 886 946
e 889 898
e 891 966
e 891 908
e 895 973
e 897 962
e 898 899
e 898 908
e 900 987
e 904 966
e 904 953
e 918 934
e 919 929
e 920 944
e 920 923
e 920 957
e 921 991
e 937 967
e 938 992
e 939 975
e 946 969
e 950 983
e 953 979
e 959 962
e 966 996
e 975 998
e 983 986
